Week_2_quiz.sol
# Solution for model basic_model
# Objective value = 180
X 20
Y 60
